/* objective function */
min:
t1-t2-t3-t4-t5-t6-t7;


/* constraints */
x11 + x12 + x13 + x14 + x15 + x16 + x17  = 1;
x21 + x22 + x23 + x24 + x25 + x26 + x27  =1;
x31 + x32 + x33 + x34 + x35 + x36 + x37 = 1;
x41 + x42 + x43 + x44 + x45 + x46 + x47 = 1;
x51 + x52 + x53  + x54 + x55 + x56 + x57 = 1;
x61 + x62 + x63 + x64 + x65 + x66 + x67  = 1;
x71 + x72 + x73 + x74 + x75 + x76 + x77  = 1;
x81 + x82 + x83 + x84 + x85 + x86 + x87  =1;
x91 + x92 + x93 + x94 + x95 + x96 + x97 = 1;
x101 + x102 + x103 + x104 + x105 + x106 + x107 = 1;
x111 + x112 + x113 + x114 + x115 + x116 + x117 = 1;
x121 + x122 + x123 + x124 + x125 + x126 + x127 = 1;
x131 + x132 + x133 + x134 + x135 + x136 + x137 = 1;
x141 + x142 + x143 + x144 + x145 + x146 + x147 = 1;
x151 + x152 + x153 + x154 + x155 + x156 + x157 = 1;
x161 + x162 + x163 + x164 + x165 + x166 + x167 = 1;
x171 + x172 + x173 + x174 + x175 + x176 + x177 = 1;
x181 + x182 + x183 + x184 + x185 + x186 + x187 = 1;
x191 + x192 + x193 + x194 + x195 + x196 + x197 = 1;
x201 + x202 + x203 + x204 + x205 + x206 + x207 = 1;
x211 + x212 + x213 + x214 + x215 + x216 + x217 = 1;


x11 + x21 + x31 + x41 + x51 + x61 + x71 + x81 + x91 + x101 + x111 + x121 + x131 + x141 + x151 + x161 + x171 + x181 + x191 + x201 + x211 = 3;
x12 + x22 + x32 + x42 + x52 + x62 + x72 + x82 + x92 + x102 + x112 + x122 + x132 + x142 + x152 + x162 + x172 + x182 + x192 + x202 + x212 = 3;
x13 + x23 + x33 + x43 + x53 + x63 + x73 + x83 + x93 + x103 + x113 + x123 + x133 + x143 + x153 + x163 + x173 + x183 + x193 + x203 + x213 = 3;
x14 + x24 + x34 + x44 + x54 + x64 + x74 + x84 + x94 + x104 + x114 + x124 + x134 + x144 + x154 + x164 + x174 + x184 + x194 + x204 + x214 = 3;
x15 + x25 + x35 + x45 + x55 + x65 + x75 + x85 + x95 + x105 + x115 + x125 + x135 + x145 + x155 + x165 + x175 + x185 + x195 + x205 + x215 = 3;
x16 + x26 + x36 + x46 + x56 + x66 + x76 + x86 + x96 + x106 + x116 + x126 + x136 + x146 + x156 + x166 + x176 + x186 + x196 + x206 + x216 = 3;
x17 + x27 + x37 + x47 + x57 + x67 + x77 + x87 + x97 + x107 + x117 + x127 + x137 + x147 + x157 + x167 + x177 + x187 + x197 + x207 + x217 = 3;

A1 - (a1 x11 + a2 x21 + a3 x31 + a4x41 + a5 x51 + a6 x61 + a7 x71 + a8 x81 + a9 x91 + a10 x101 + a11 x111 + a12 x121 + a13 x131 + a14 x141 + a15 x151 + a16 x161 + a17 x171 + a18 x181 + a19 x191 + a20 x201 + a21 x211) = 0;
A3 - (a1 x13 + a2 x23 + a3 x33 + a4 x43 + a5 x53 + a6 x63 + a7 x73 + a8 x83 + a9x93 + a10x103 + a11x113 + a12x123 + a13 x133 + a14 x143 + a15 x153 + a16 x163 + a17 x173 + a18 x183 + a19 x193 + a20 x203 + a21 x213) = 0;
A4 - (a1 x14 + a2 x24 + a3 x34 + a4 x44 + a5 x54 + a6 x64 + a7 x74 + a8 x84 + a9 x94 + a10 x104 + a11 x114 + a12 x124 + a13 x134 + a14 x144 + a15 x154 + a16 x164 + a17 x171 + a18 x181 + a19 x191 + a20 x201 + a21 x211) = 0;
A5 - (a1 x15 + a2 x25 + a3 x35 + a4 x45 + a5 x55 + a6 x65 + a7 x75 + a8 x85 + a9 x95 + a10 x105 + a11 x115 + a12 x125 + a13 x135 + a14 x145 + a15 x155 + a16 x165 + a17 x175 + a18 x185 + a19 x195 + a20 x205 + a21 x215) = 0;
A6 - (a1 x16 + a2 x26 + a3 x36 + a4 x46 + a5 x56 + a6 x66 + a7 x76 + a8 x86 + a9 x96 + a10 x106 + a11 x116 + a12 x126 + a13 x136 + a14 x146 + a15 x156 + a16 x166 + a17 x176 + a18 x186 + a19 x196 + a20 x206 + a21 x216) = 0;
A7 - (a1 x17 + a2 x27 + a3 x37 + a4 x47 + a5 x57 + a6 x67 + a7 x77 + a8 x87 + a9 x97 + a10 x107 + a11 x117 + a12 x127 + a13 x137 + a14 x147 + a15 x157 + a16 x167 + a17 x177 + a18 x187 + a19 x197 + a20 x207 + a21 x217) = 0;

B1 - (b1 x11 + b2 x21 + b3 x31 + b4  x41 + b5 x51 + b6 x61 + b7 x71 + b8 x81 + b9 x91 + b10  x101 + b11  x111 + b12  x121 + b13  x131 + b14  x141 + b15 x151 + b16 x161 + b17 x171 + b18 x181 + b19  x191 + b20 x201 + b21 x211) = 0;
B2 - (b1 x12 + b2 x22 + b3 x32 + b4 x42 + b5 x52 + b6 x62 + b7 x72 + b8 x82 + b9 x92 + b10 x102 + b11 x112 + b12 x122 + b13 x132 + b14 x142 + b15 x152 + b16 x162 + b17 x172 + b18 x182 + b19 x192 + b20 x202 + b21 x212) = 0;
B3 - (b1 x13 + b2 x23 + b3 x33 + b4 x43 + b5 x53 + b6 x63 + b7 x73 + b8 x83 + b9 x93 + b10 x103 + b11  x113 + b12 x123 + b13 x133 + b14 x143 + b15 x153 + b16 x163 + b17 x173 + b18 x183 + b19 x193 + b20 x203 + b21 x213) = 0;
B4 - (b1 x14 + b2 x24 + b3 x34 + b4 x44 + b5 x54 + b6 x64 + b7 x74 + b8 x84 + b9 x94 + b10 x104 + b11 x114 + b12 x124 + b13 x134 + b14 x144 + b15 x154 + b16 x164 + b17 x171 + b18 x181 + b19 x191 + b20 x201 + b21 x211) = 0;
B5 - (b1 x15 + b2 x25 + b3 x35 + b4 x45 + b5 x55 + b6 x65 + b7 x75 + b8 x85 + b9 x95 + b10 x105 + b11 x115 + b12 x125 + b13 x135 + b14 x145 + b15 x155 + b16 x165 + b17 x175 + b18 x185 + b19 x195 + b20 x205 + b21 x215) = 0;
B6 - (b1 x16 + b2 x26 + b3 x36 + b4 x46 + b5 x56 + b6 x66 + b7 x76 + b8 x86 + b9 x96 + b10 x106 + b11 x116 + b12 x126 + b13 x136 + b14 x146 + b15 x156 + b16 x166 + b17 x176 + b18 x186 + b19 x196 + b20 x206 + b21 x216) = 0;
B7 - (b1 x17 + b2 x27 + b3 x37 + b4 x47 + b5 x57 + b6 x67 + b7 x77 + b8 x87 + b9 x97 + b10 x107 + b11 x117 + b12 x127 + b13 x137 + b14 x147 + b15 x157 + b16 x167 + b17 x177 + b18 x187 + b19 x197 + b20 x207 + b21 x217) = 0;

C1 - (c1 x11 + c2 x21 + c3 x31 + c4 x41 + c5 x51 + c6 x61 + c7 x71 + c8 x81 + c9 x91 + c10 x101 + c11 x111 + c12 x121 + c13 x131 + c14 x141 + c15 x151 + c16 x161 + c17 x171 + c18 x181 + c19 x191 + c20 x201 + c21 x211) = 0;
C2 - (c1 x12 + c2 x22 + c3 x32 + c4 x42 + c5 x52 + c6 x62 + c7 x72 + c8 x82 + c9 x92 + c10 x102 + c11 x112 + c12 x122 + c13 x132 + c14 x142 + c15 x152 + c16 x162 + c17 x172 + c18 x182 + c19 x192 + c20 x202 + c21 x212) = 0;
C3 - (c1 x13 + c2 x23 + c3 x33 + c4 x43 + c5 x53 + c6 x63 + c7 x73 + c8 x83 + c9 x93 + c10 x103 + c11 x113 + c12 x123 + c13 x133 + c14 x143 + c15 x153 + c16 x163 + c17 x173 + c18 x183 + c19 x193 + c20 x203 + c21 x213) = 0;
C4 - (c1 x14 + c2 x24 + c3 x34 + c4 x44 + c5 x54 + c6 x64 + c7 x74 + c8 x84 + c9 x94 + c10 x104 + c11 x114 + c12 x124 + c13 x134 + c14 x144 + c15 x154 + c16 x164 + c17 x171 + c18 x181 + c19 x191 + c20 x201 + c21 x211) = 0;
C5 - (c1 x15 + c2 x25 + c3 x35 + c4 x45 + c5 x55 + c6 x65 + c7 x75 + c8 x85 + c9 x95 + c10 x105 + c11 x115 + c12 x125 + c13 x135 + c14 x145 + c15 x155 + c16 x165 + c17 x175 + c18 x185 + c19 x195 + c20 x205 + c21 x215) = 0;
C6 - (c1 x16 + c2 x26 + c3 x36 + c4 x46 + c5 x56 + c6 x66 + c7 x76 + c8 x86 + c9 x96 + c10 x106 + c11 x116 + c12 x126 + c13 x136 + c14 x146 + c15 x156 + c16 x166 + c17 x176 + c18 x186 + c19 x196 + c20 x206 + c21 x216) = 0;
C7 - (c1 x17 + c2 x27 + c3 x37 + c4 x47 + c5 x57 + c6 x67 + c7 x77 + c8 x87 + c9 x97 + c10 x107 + c11 x117 + c12 x127 + c13 x137 + c14 x147 + c15 x157 + c16 x167 + c17 x177 + c18 x187 + c19 x197 + c20 x207 + c21 x217) = 0;

A1 >= 5;
A2 >= 5;
A3 >= 5;
A4 >= 5; 
A5 >= 5;
A6 >= 5;
A7 >= 5;
A1 <= 8;
A2 <= 8;
A3 <= 8;
A4 <= 8; 
A5 <= 8;
A6 <= 8;
A7 <= 8;
B1 >= 5;
B2 >= 5;
B3 >= 5;
B4 >= 5; 
B5 >= 5;
B6 >= 5;
B7 >= 5;
B1 <= 8;
B2 <= 8;
B3 <= 8;
B4 <= 8; 
B5 <= 8;
B6 <= 8;
B7 <= 8;
C1 >= 5;
C2 >= 5;
C3 >= 5;
C4 >= 5; 
C5 >= 5;
C6 >= 5;
C7 >= 5;
C1 <= 8;
C2 <= 8;
C3 <= 8;
C4 <= 8; 
C5 <= 8;
C6 <= 8;
C7 <= 8;

t1: 16<= A1 + B1 + C1 <=26 ;
 
t2: 16<= A2 + B2 + C2 <=26;

t3:  16<= A3 + B3 + C3 <=26;

t4 : 16<= A4 + B4 + C4 <=26;
t5: 16<= A5 + B5 + C5 <=26;

t6 :16<= A6 + B6 + C6 <=26;
t7:16<= A7 + B7 + C7 <=26;


  

bin x11 , x12 , x13 , x14 , x15 , x16 , x17 , x21 , x22 , x23 , x24 , x25 , x26, x27 , x31 , x32 , x33 , x32 ,x33 , x34 , x35 , x36 , x37 , x41 , x42 , x43 , x44 , x45 , x46 , x47 , x51 , x52 , x53 , x61 , x62 , x63 , x64 , x65 , x66 , x67 , x71 , x72 , x73 , x74 , x75 , x76 , x77 , x81 , x82 , x83 , x84 , x85 , x86 , x87 , x91 , x92 , x93 , x94 , x95 , x96 , x97 , x101 , x102 , x103 , x104 , x105 , x106 , x107 , x111 , x112 , x113 , x114 , x115 , x116 , x117 , x121 , x122 , x123 , x124 , x125 , x126 , x127 , x131 , x132 , x133 , x134 , x135 , x136 , x137 , x141 , x142 , x143 , x144 , x145 , x146 , x147 , x151 , x152 , x153 , x154 , x155 , x156 , x157 , x161 , x162 , x163 , x164 , x165 , x166 , x167 , x171 , x172 , x173 , x174 , x175 , x176 , x177 , x181 , x182 , x183 , x184 , x185 , x186 , x187 , x191 , x192 , x193 , x194 , x195 , x196 , x197 , x201 , x202 , x203 , x204 , x205  , x206 , x207 , x211 , x212 , x213 , x214 , x215 , x216 , x217;